experiments/sat_smt/run/sat-r+/results/freya.res
solved=true
solvingTime=68.5799560546875
nActions=13