experiments/sat_smt/run/sat-r+/results/freya.out
Timesteps: 1
s UNSATISFIABLE
real 0.12
user 0.01
sys 0.00
Timesteps: 2
s UNSATISFIABLE
real 0.11
user 0.03
sys 0.00
Timesteps: 3
s UNSATISFIABLE
real 0.21
user 0.07
sys 0.00
Timesteps: 4
s UNSATISFIABLE
real 0.28
user 0.21
sys 0.00
Timesteps: 5
s UNSATISFIABLE
real 0.78
user 0.65
sys 0.01
Timesteps: 6
s UNSATISFIABLE
real 1.82
user 1.63
sys 0.01
Timesteps: 7
s UNSATISFIABLE
real 3.35
user 3.18
sys 0.02
Timesteps: 8
s UNSATISFIABLE
real 5.30
user 5.12
sys 0.01
Timesteps: 9
s UNSATISFIABLE
real 5.97
user 5.73
sys 0.01
Timesteps: 10
s UNSATISFIABLE
real 6.05
user 5.82
sys 0.03
Timesteps: 11
s UNSATISFIABLE
real 15.33
user 14.78
sys 0.04
Timesteps: 12
s UNSATISFIABLE
real 13.47
user 12.89
sys 0.04
Timesteps: 13
s SATISFIABLE
real 16.61
user 15.96
sys 0.04
